Route #1: 16 48 1 36 56 62
Route #2: 52 50 32 17 10 37 26
Route #3: 57 42 25 11 63 46 5 54 43
Route #4: 27 65 55 60 4 47 14 34
Route #5: 31 64 61 21 67 7 28
Route #6: 23 30 9 49 33 2 53 18
Route #7: 66 13 45 35 44 15 3 6 51
Route #8: 24 22 12 58 19
Route #9: 68 41 20 59 8 39 38 40 29
Cost 1159
Time 0.276053
Tempo = 0.2897711999976309